Name: Norcocaine
Synon: $:00in-source
DB#: CCMSLIB00004721848
InChIKey: AYDBLCSLKNTEJL-UHFFFAOYSA-N
Precursor_type: [M+H]+
Spectrum_type: MS2
PrecursorMZ: 290.139
Instrument: Orbitrap
Ion_mode: P
Formula: C16H19NO4
MW: 289
ExactMass: 289.13140808800006
Comments: "SMILES=COC(=O)C1C2CCC(N2)CC1OC(=O)C3=CC=CC=C3" "computed SMILES=COC(=O)C1C2CCC(CC1OC(=O)C3=CC=CC=C3)N2" "computed InChI=InChI=1S/C16H19NO4/c1-20-16(19)14-12-8-7-11(17-12)9-13(14)21-15(18)10-5-3-2-4-6-10/h2-6,11-14,17H,7-9H2,1H3" "ion source=LC-ESI" "compound source=Isolated" "exact mass=289.131" "charge state=1" "source file=f.Francesca90/rette droga triplicata/file convertiti/180813_MIX60-250PPB_II.mzXML;" "origin=GNPS-LIBRARY" "author=08132018, Francesca90, Manuel Sergi" "computed mass accuracy=1.088829836603427" "computed mass error=3.159119999622817E-4" "SPLASH=splash10-014i-0910000000-924aed2324622c711dcb" "submitter=GNPS Team (University of California, San Diego)" "MoNA Rating=4.166666666666666"
Num Peaks: 383
49.502502 0.000000
49.502834 0.000000
49.503162 0.000000
51.599007 0.000000
51.599358 0.000000
51.599709 0.000000
51.601467 0.084537
51.603210 0.000000
51.603561 0.000000
51.603916 0.000000
54.194489 0.000000
54.194866 0.000000
54.195244 0.000000
54.196758 0.060686
54.198250 0.000000
54.198627 0.000000
54.199005 0.000000
59.010593 0.000000
59.011024 0.000000
59.011456 0.000000
59.013603 0.111733
59.015732 0.000000
59.016163 0.000000
59.016590 0.000000
63.643356 0.000000
63.643837 0.000000
63.644318 0.000000
63.646244 0.057793
63.648167 0.000000
63.648647 0.000000
63.649128 0.000000
65.036270 0.000000
65.036774 0.000000
65.037270 0.000000
65.039261 0.058887
65.041229 0.000000
65.041725 0.000000
65.042221 0.000000
68.044250 0.000000
68.044777 0.000000
68.045311 0.000000
68.050102 4.182774
68.054878 0.000000
68.055412 0.000000
68.055946 0.000000
71.939888 0.000000
71.940468 0.000000
71.941048 0.000000
71.943939 0.058369
71.946220 0.000000
71.946800 0.000000
71.947380 0.000000
79.050285 0.000000
79.050949 0.000000
79.051620 0.000000
79.054947 0.095391
79.057663 0.000000
79.058327 0.000000
79.058998 0.000000
80.044838 0.000000
80.045517 0.000000
80.046196 0.000000
80.050270 0.586526
80.053612 0.000000
80.054291 0.000000
80.054970 0.000000
81.065102 0.000000
81.065788 0.000000
81.066483 0.000000
81.069946 0.341422
81.074097 0.000000
81.074783 0.000000
81.075478 0.000000
82.060608 0.000000
82.061310 0.000000
82.062019 0.000000
82.065544 0.128987
82.069023 0.000000
82.069725 0.000000
82.070435 0.000000
91.047379 0.000000
91.048203 0.000000
91.049026 0.000000
91.054794 1.157306
91.059738 0.000000
91.060562 0.000000
91.061386 0.000000
92.091995 0.000000
92.092834 0.000000
92.093674 0.000000
92.094513 0.000000
92.095352 0.000000
92.096191 0.000000
92.097031 0.000000
92.097862 0.000000
92.098701 0.000000
92.099541 0.000000
92.100372 0.000000
92.101212 0.000000
92.102051 0.000000
93.027771 0.000000
93.028618 0.000000
93.029472 0.000000
93.033722 0.408206
93.038834 0.000000
93.039680 0.000000
93.040535 0.000000
93.052452 0.000000
93.053307 0.000000
93.054153 0.000000
93.057564 0.073528
93.061813 0.000000
93.062668 0.000000
93.063522 0.000000
93.064369 0.000000
93.065224 0.000000
93.066078 0.000000
93.070335 0.270813
93.074654 0.000000
93.075508 0.000000
93.076355 0.000000
94.058350 0.000000
94.059219 0.000000
94.060081 0.000000
94.065277 1.334217
94.071259 0.000000
94.072121 0.000000
94.072990 0.000000
95.044472 0.000000
95.045349 0.000000
95.046227 0.000000
95.049744 0.062438
95.053238 0.000000
95.054115 0.000000
95.054993 0.000000
99.524086 0.000000
99.525024 0.000000
99.525963 0.000000
99.529732 0.063133
99.533493 0.000000
99.534431 0.000000
99.535378 0.000000
101.053802 0.000000
101.054764 0.000000
101.055733 0.000000
101.059586 0.084231
101.064384 0.000000
101.065346 0.000000
101.066307 0.000000
105.020721 0.000000
105.021744 0.000000
105.022758 0.000000
105.023781 0.000000
105.024803 0.000000
105.025826 0.000000
105.026848 0.000000
105.027863 0.000000
105.033974 6.878393
105.042160 0.000000
105.043182 0.000000
105.044205 0.000000
105.045219 0.000000
105.046242 0.000000
105.047256 0.000000
105.048279 0.000000
105.049301 0.000000
105.050323 0.000000
106.030304 0.000000
106.031342 0.000000
106.032379 0.000000
106.036522 0.226149
106.042732 0.000000
106.043762 0.000000
106.044800 0.000000
107.042969 0.000000
107.044022 0.000000
107.045067 0.000000
107.049271 0.067364
107.053558 0.000000
107.054611 0.000000
107.055656 0.000000
108.070297 0.000000
108.071365 0.000000
108.072426 0.000000
108.080956 4.600319
108.088318 0.000000
108.089386 0.000000
108.090446 0.000000
109.076637 0.000000
109.077721 0.000000
109.078796 0.000000
109.084206 0.152125
109.089561 0.000000
109.090645 0.000000
109.091721 0.000000
118.033417 0.000000
118.034630 0.000000
118.035843 0.000000
118.041931 0.145440
118.048012 0.000000
118.049225 0.000000
118.050446 0.000000
118.055305 0.000000
118.056526 0.000000
118.057739 0.000000
118.065041 0.359626
118.072372 0.000000
118.073593 0.000000
118.074806 0.000000
119.038338 0.000000
119.039566 0.000000
119.040794 0.000000
119.049423 1.251353
119.056747 0.000000
119.057976 0.000000
119.059212 0.000000
125.049866 0.000000
125.051193 0.000000
125.052521 0.000000
125.060478 0.243394
125.067101 0.000000
125.068428 0.000000
125.069756 0.000000
126.783867 0.000000
126.785217 0.000000
126.786575 0.000000
126.791992 0.070577
126.797363 0.000000
126.798714 0.000000
126.800072 0.000000
136.045212 0.000000
136.046722 0.000000
136.048218 0.000000
136.049728 0.000000
136.051239 0.000000
136.052734 0.000000
136.054245 0.000000
136.055756 0.000000
136.057251 0.000000
136.058838 0.000000
136.060349 0.000000
136.075409 48.458207
136.084351 0.887768
136.091888 0.000000
136.093384 0.000000
136.094894 0.000000
136.096405 0.000000
136.097900 0.000000
136.099411 0.000000
136.100922 0.000000
136.102783 0.000000
136.104294 0.000000
136.105789 0.000000
136.107300 0.000000
137.065628 0.000000
137.067154 0.000000
137.068680 0.000000
137.079330 2.080510
137.088089 0.000000
137.089600 0.000000
137.091125 0.000000
140.058334 0.000000
140.059906 0.000000
140.061478 0.000000
140.069336 0.142449
140.078979 0.000000
140.080551 0.000000
140.082123 0.000000
151.061554 0.000000
151.063324 0.000000
151.065079 0.000000
151.075653 0.578331
151.085938 0.000000
151.087708 0.000000
151.089462 0.000000
154.072693 0.000000
154.074509 0.000000
154.076324 0.000000
154.085388 0.528437
154.096466 0.000000
154.098282 0.000000
154.100098 0.000000
168.026550 0.000000
168.028610 0.000000
168.030685 0.000000
168.032745 0.000000
168.034805 0.000000
168.036880 0.000000
168.038940 0.000000
168.041016 0.000000
168.043076 0.000000
168.045135 0.000000
168.047211 0.000000
168.049271 0.000000
168.051346 0.000000
168.059601 0.000000
168.061676 0.000000
168.063736 0.000000
168.065811 0.000000
168.067871 0.000000
168.069931 0.000000
168.072006 0.000000
168.074066 0.000000
168.078201 0.640064
168.101013 100.000000
168.123672 0.000000
168.125748 0.000000
168.127808 0.000000
168.129883 0.000000
168.131943 0.000000
168.134018 0.000000
168.136078 0.000000
168.138153 0.000000
168.140213 0.000000
168.142288 0.000000
168.144348 0.000000
168.146423 0.000000
168.148499 0.000000
168.150558 0.000000
168.152634 0.000000
168.154694 0.000000
168.156769 0.000000
168.158829 0.000000
168.160904 0.000000
168.162964 0.000000
168.165039 0.000000
168.167099 0.000000
168.169174 0.000000
168.320267 0.000000
168.322342 0.000000
168.324402 0.000000
168.332687 0.117784
168.343170 0.000000
168.345245 0.000000
168.347321 0.000000
169.085159 0.000000
169.087250 0.000000
169.089325 0.000000
169.106018 5.240770
169.122726 0.000000
169.124817 0.000000
169.126907 0.000000
212.906906 0.000000
212.909851 0.000000
212.912796 0.000000
212.924591 0.086497
212.936539 0.000000
212.939484 0.000000
212.942444 0.000000
275.483337 0.000000
275.487671 0.000000
275.492004 0.000000
275.509369 0.075172
275.526978 0.000000
275.531311 0.000000
275.535645 0.000000
290.076324 0.000000
290.081024 0.000000
290.085693 0.000000
290.090393 0.000000
290.137268 31.880145
290.183868 0.000000
290.188538 0.000000
290.193237 0.000000
290.197937 0.000000
290.202606 0.000000
290.207306 0.000000
290.212006 0.000000
290.216675 0.000000
290.221619 0.000000
290.226288 0.000000
290.230988 0.000000
290.235687 0.000000
291.095764 0.000000
291.100464 0.000000
291.105194 0.000000
291.142883 3.025800
291.175842 0.000000
291.180573 0.000000
291.185272 0.000000
318.177612 0.000000
318.182983 0.000000
318.188385 0.000000

