Name: Prodigiosin
Synon: $:00in-source
DB#: CCMSLIB00005435440
InChIKey: SZXDNGVQRDTJSD-VBKFSLOCSA-N
Precursor_type: [M+H]+
Spectrum_type: MS2
PrecursorMZ: 324.207
Instrument: qTof
Ion_mode: P
Formula: C20H25N3O
MW: 323
ExactMass: 323.19976242
Comments: "cas number=82-89-3" "SMILES=CCCCCC1=C/C(N=C1C)=C/C2=C(OC)C=C(C3=CC=CN3)N2" "InChI=InChI=1S/C20H25N3O/c1-4-5-6-8-15-11-16(22-14(15)2)12-19-20(24-3)13-18(23-19)17-9-7-10-21-17/h7,9-13,21,23H,4-6,8H2,1-3H3/b16-12-" "computed SMILES=CCCCCC1=C/C(=C/C2=C(C=C(C3=CC=CN3)N2)OC)/N=C1C" "ion source=LC-ESI" "compound source=Crude" "exact mass=0.0" "charge state=1" "source file=f.tderond/converted2019-03-28/Tristan-Prubra-condition_C-DCM-ACN.mzXML;" "origin=GNPS-LIBRARY" "author=Tristan de Rond, tderond" "computed mass accuracy=0.1185045357128762" "computed mass error=-3.842000000986445E-5" "SPLASH=splash10-00di-0059000000-a3483953ca838a769de5" "submitter=GNPS Team (University of California, San Diego)" "MoNA Rating=4.230769230769231"
Num Peaks: 47
93.056442 3.203348
145.208725 1.939211
147.108276 1.948757
148.111053 1.851398
149.118073 3.236507
161.063004 3.278860
161.085388 1.791218
162.140244 1.452268
175.091019 2.069030
186.071228 1.565757
235.113907 3.198180
236.117661 4.079118
240.110504 1.790524
249.103561 1.537818
251.103378 2.350382
252.114380 46.018860
252.142715 11.834121
252.162506 5.833076
252.193146 4.258826
252.252014 2.219493
252.415222 1.453418
252.477020 1.540146
253.126343 8.479694
253.149933 2.001694
253.184814 2.207360
253.231735 1.400133
267.136383 2.313712
291.961487 2.067815
292.189697 2.792918
292.223785 1.424897
293.180664 1.601156
294.159668 4.209551
308.175598 1.963017
309.184204 25.366538
309.243561 6.199002
309.303253 1.537236
312.165192 1.831989
324.206024 100.000000
324.244019 25.340372
324.319336 6.113597
324.357727 5.998383
324.543243 2.268208
324.816620 1.804050
324.925629 1.489756
325.111542 1.434986
325.201782 2.365584
325.545746 2.204100

