Name: 3-[(2S,3R,4S,5S,6R)-4,5-dihydroxy-6-(hydroxymethyl)-3-[(2S,3R,4S,5S,6R)-3,4,5-trihydroxy-6-(hydroxymethyl)oxan-2-yl]oxyoxan-2-yl]oxy-2-(3,4-dihydroxyphenyl)-5-hydroxy-7-methoxychromen-4-one
Synon: $:00in-source
DB#: VF-NPL-QEHF015352
InChIKey: CEZKIFXYWPTANH-HGVYTWBRSA-N
Precursor_type: [M+K]+
Spectrum_type: MS2
PrecursorMZ: 679.1270751953125
Instrument_type: ESI-QFT
Instrument: Thermo Q Exactive HF
Ion_mode: P
Collision_energy: 25HCD
Formula: C28H32O17
MW: 640
ExactMass: 640.163949564
Comments: "InChI=InChI=1S/C28H32O17/c1-40-10-5-13(33)17-14(6-10)41-24(9-2-3-11(31)12(32)4-9)25(20(17)36)44-28-26(22(38)19(35)16(8-30)43-28)45-27-23(39)21(37)18(34)15(7-29)42-27/h2-6,15-16,18-19,21-23,26-35,37-39H,7-8H2,1H3/t15-,16-,18-,19-,21+,22+,23-,26-,27+,28+/m1/s1" "computed SMILES=O=C1C(OC2OC(CO)C(O)C(O)C2OC3OC(CO)C(O)C(O)C3O)=C(OC4=CC(OC)=CC(O)=C14)C=5C=CC(O)=C(O)C5" "raw filename=MX_C6_36_p15_D04_POS_QEHF_248.raw" "averaged scans=26" "author=Arpana Vaniya" "source introduction=direct injection" "computed mass accuracy=0.04766219556406041" "computed mass error=-3.2368687470807345E-5" "SPLASH=splash10-004i-1113009000-b24c90fa50b2e3f47d36" "submitter=Arpana Vaniya (University of California, Davis)" "MoNA Rating=4.615384615384616"
Num Peaks: 841
50.002089 0.003737
50.195326 0.004850
50.462096 0.003141
50.767727 0.011352
51.129186 0.003419
51.337004 0.011741
51.384057 0.003608
51.454777 0.004194
51.474160 0.003450
51.520608 0.003097
51.704136 0.007443
51.836167 0.003117
51.909150 0.003110
51.948724 0.015607
51.994796 0.015358
52.352132 0.003466
52.390398 0.003417
52.495588 0.003544
52.564115 0.003217
53.118020 0.003378
53.173204 0.005125
53.409012 0.004139
53.877906 0.003078
53.956332 0.003513
53.977170 0.003592
54.031554 0.011143
54.292991 0.003692
54.316040 0.004652
54.376721 0.003704
54.627941 0.002934
54.659056 0.012024
54.754790 0.006729
54.910870 0.004341
54.982600 0.003071
55.039834 0.005090
55.055015 0.004021
55.286388 0.003258
55.319446 0.005210
55.516425 0.014840
55.608247 0.003011
55.680040 0.003767
55.702567 0.003099
55.780053 0.004218
56.087745 0.003355
57.006924 0.006903
57.034156 0.038312
57.070607 0.967176
57.121982 0.003006
57.194842 0.004522
57.288577 0.003621
57.342573 0.019926
57.467497 0.004936
57.578512 0.004346
57.967770 0.003132
58.065855 0.013963
58.580605 0.004778
58.689896 0.016288
58.766706 0.004377
58.811751 0.016219
58.997405 0.005186
59.049853 0.194328
59.090720 0.003754
59.173740 0.004645
59.218276 0.003600
59.455308 0.003095
59.611243 0.003400
59.618333 0.003328
59.943667 0.002943
60.045156 0.006960
60.102475 0.012252
60.504749 0.012964
61.028959 0.026749
61.381842 0.015126
61.417628 0.003624
61.561269 0.007124
61.762646 0.003714
61.941850 0.015499
61.975956 0.003359
62.025178 0.003855
62.060365 0.003560
62.382420 0.004572
62.474041 0.003414
62.516600 0.004036
62.974125 0.003236
63.237476 0.018338
63.653151 0.013185
63.998279 0.003595
65.014946 0.004653
65.316033 0.003272
65.888919 0.003738
66.200755 0.003710
66.461339 0.012653
67.150412 0.015824
67.205966 0.014202
67.787831 0.003767
67.798238 0.003381
67.811996 0.003481
68.044896 0.018938
68.320047 0.006535
68.562943 0.011691
68.766130 0.003833
68.867177 0.008288
68.965462 0.003775
69.034050 0.126931
69.057186 0.004412
69.064156 0.003688
69.070568 0.025897
69.931721 0.003291
70.065822 0.107450
70.257554 0.014444
70.315714 0.003456
70.326344 0.004757
70.767645 0.003331
71.049667 0.038529
71.086164 1.582999
71.270198 0.003537
71.372123 0.004882
71.545577 0.003837
71.777587 0.003917
71.827220 0.003399
72.089365 0.010839
72.164453 0.003540
72.190327 0.013208
72.349708 0.003235
72.765550 0.007765
72.956512 0.003252
73.029018 0.108272
73.065419 0.179917
73.473757 0.003674
74.476369 0.012408
75.822259 0.003347
75.908595 0.003474
75.951505 0.003497
77.507637 0.004001
78.335435 0.002967
78.394173 0.003427
78.481487 0.014874
78.946139 0.004530
78.957462 0.004330
79.021793 0.771864
79.050484 0.018890
79.313520 0.003472
79.338941 0.003396
80.606486 0.004144
80.772186 0.003650
80.954101 0.006160
81.034038 0.012541
81.070431 0.050139
81.197920 0.003224
81.880709 0.008106
82.358550 0.003733
82.468756 0.003971
83.049856 0.003782
83.086102 0.013845
83.434566 0.009792
83.495440 0.003571
83.694151 0.003446
84.081333 0.004069
84.937231 0.012741
85.028944 1.807681
85.065373 0.032319
85.101721 1.033007
85.637995 0.007040
85.654552 0.005102
85.735777 0.005124
85.961959 0.004083
86.031894 0.012347
86.060477 0.003662
86.096993 0.004217
86.498407 0.013811
87.044572 3.724035
88.047854 0.022838
88.941899 0.003223
88.996890 0.003163
89.060217 7.831119
89.112774 0.016358
89.421619 0.003569
89.745792 0.004789
89.784652 0.007459
89.814285 0.004187
90.063548 0.154143
91.039269 0.105811
91.042756 0.003271
91.057685 0.019774
91.423696 0.007046
92.139487 0.004107
92.936020 0.017795
93.037320 0.029051
93.070179 0.011382
93.860681 0.003585
94.344582 0.017500
95.049545 0.016504
95.085993 0.053858
95.767922 0.003355
96.819214 0.004271
97.012435 0.007371
97.028818 0.634843
97.065226 0.004395
97.101710 0.010773
97.782849 0.003318
98.031935 0.008193
98.436386 0.017056
98.743884 0.003544
98.976096 0.004813
99.044334 0.105093
99.081140 0.007341
100.684554 0.006102
100.979866 0.003133
101.060173 0.071712
101.354980 0.004324
101.750934 0.005164
103.039299 0.157447
103.075748 0.170479
103.179839 0.016266
103.564755 0.003379
103.902898 0.004052
104.107328 0.007589
104.269884 0.016509
104.390177 0.006726
104.505092 0.008326
106.679762 0.013122
107.070595 0.207110
107.085747 0.008740
108.794563 0.003860
109.028486 0.158250
109.101424 0.103122
109.472147 0.009172
109.594611 0.015114
109.635899 0.003445
110.483475 0.003784
110.976222 0.007628
111.117225 0.004276
111.281402 0.006897
112.075861 0.007596
112.528374 0.003311
113.059864 0.083613
113.790526 0.013007
115.075504 0.032320
115.086812 0.626746
115.244400 0.003755
115.662087 0.014364
115.899681 0.007532
116.070759 0.018077
116.107318 0.004055
116.937065 0.003634
117.054744 0.007221
117.091200 0.197407
117.186996 0.004115
118.086229 0.014357
118.255657 0.003447
118.692703 0.015966
118.908679 0.003640
119.049489 0.003986
119.085737 0.021779
120.024873 0.003755
120.226780 0.019004
120.915788 0.003582
121.064970 0.287122
121.101377 0.071715
122.897357 0.003357
123.044238 0.004049
123.080495 0.004815
123.117089 0.027635
123.676442 0.004089
124.560515 0.004710
124.991037 0.003915
124.998493 0.017042
125.096378 0.009978
125.248020 0.005458
125.513210 0.006693
125.598456 0.003480
127.039046 1.085786
127.111749 0.043156
127.148173 0.048604
127.234777 0.003531
128.041654 0.003514
128.667015 0.006191
129.054890 0.023807
129.496960 0.015228
129.549959 0.012652
129.826996 0.014328
130.044459 0.006386
130.410896 0.007980
130.823624 0.014475
131.052484 0.004418
131.070263 1.501299
131.085335 0.004020
131.721607 0.007598
131.796457 0.014758
131.824746 0.003390
132.073819 0.006527
132.231549 0.022033
132.745174 0.004231
133.085883 7.702459
133.101166 0.084895
133.628650 0.006011
133.659871 0.003425
134.089217 0.288220
134.728872 0.003608
134.996484 0.003886
135.080144 0.012230
135.101774 0.003400
135.116830 0.045499
136.343652 0.003537
136.976760 0.014281
137.013750 0.003578
137.022905 0.009187
137.059469 0.092493
137.095892 0.027075
139.111245 0.008683
140.070325 0.037211
140.143321 0.016406
140.457138 0.014791
140.732867 0.003336
141.065403 0.007691
141.368741 0.008082
141.832022 0.004975
141.990527 0.003992
142.921972 0.003371
143.001530 0.013882
143.207012 0.005283
145.049477 0.904878
145.065289 0.004333
145.085500 0.006714
147.043762 0.309692
147.064721 0.005260
147.080433 0.216953
147.101480 0.023896
147.116516 0.018293
148.083470 0.007453
149.096047 0.109206
149.131925 0.022998
150.704668 0.003709
151.075538 0.004146
151.096165 0.008274
151.111750 0.014503
152.084137 0.012320
152.195585 0.015765
152.244182 0.018241
152.922052 0.016566
152.985758 0.024214
153.054477 0.004144
153.127281 0.035649
153.506430 0.003850
155.705044 0.003828
156.262666 0.005347
157.085677 0.033526
158.081079 0.004138
158.593711 0.004375
158.996153 0.077967
159.076260 0.023885
159.116594 0.004284
159.270781 0.007670
159.424696 0.004366
159.824588 0.003687
160.327325 0.011066
161.011596 0.159356
161.095817 0.028897
161.191096 0.003552
162.629470 0.004433
163.038748 0.148394
163.059696 0.030414
163.075324 0.035802
163.111451 0.079763
164.182663 0.014754
164.858742 0.003373
165.090949 1.067947
165.097461 0.005239
165.278997 0.004116
165.959122 0.017378
166.016473 0.003890
166.094901 0.008595
167.070029 0.031936
167.106590 0.064909
168.672073 0.003436
169.121267 0.003781
169.264079 0.013385
169.419061 0.006305
169.439267 0.004643
170.996056 0.244187
172.877631 0.004357
173.278624 0.012563
175.096455 1.228470
175.111573 0.010961
176.669785 0.008556
176.985312 0.003329
177.006581 0.194010
177.054540 0.088832
177.111937 2.545994
177.127456 0.009255
178.049588 0.004069
178.115410 0.042628
178.643957 0.015988
179.106700 0.071235
180.533295 0.017553
181.122198 0.003699
181.409677 0.004289
181.621767 0.013817
182.996298 0.004488
184.073291 0.065445
184.520527 0.008108
185.116276 0.013655
189.006680 0.124855
189.091012 0.008730
189.127193 0.004633
191.106500 0.124478
191.142922 0.158221
192.680916 0.015250
192.894422 0.003642
193.049450 0.004148
193.122236 0.057958
193.159282 0.004987
194.465102 0.006763
194.996033 0.072118
195.065114 0.020642
195.291104 0.017691
195.991075 0.003876
198.990871 0.032810
199.026316 0.004827
199.852334 0.015820
201.006887 0.539757
201.102122 0.003829
201.111698 0.012962
201.562585 0.016216
201.945704 0.004938
202.746013 0.012489
204.174678 0.060533
206.489080 0.003712
206.996131 0.081147
207.066482 0.004680
207.101190 0.031964
207.137686 0.019251
209.009881 0.013729
209.117121 0.357480
209.153436 0.004850
210.120255 0.006299
210.444477 0.003718
210.472708 0.003670
211.132577 0.100484
213.006579 0.200047
215.023066 0.004064
215.378583 0.004332
215.829205 0.003520
219.017451 2.233555
219.122771 0.326960
219.174442 0.007754
220.020575 0.061065
220.757243 0.015666
221.011889 0.363577
221.118493 0.003898
221.138298 0.241514
225.006465 0.151268
227.200388 0.166644
228.204285 0.003808
229.082202 0.004034
231.017181 0.072710
231.421137 0.005483
233.032595 0.015155
233.190484 0.004922
233.582134 0.003666
234.993886 0.011868
235.132742 0.038239
235.557470 0.017781
237.006160 0.152078
237.027855 4.493050
238.030896 0.165923
238.334257 0.005080
238.561659 0.003668
239.022479 0.252832
239.149213 0.031986
239.873216 0.008747
243.017075 0.213514
245.032943 0.015554
245.049157 0.013895
245.997372 0.003587
247.010828 0.005918
247.205422 1.091038
248.056755 0.004001
248.208867 0.041018
249.005945 0.006880
249.111561 0.018082
249.538687 0.015762
251.043185 0.104508
253.004776 0.003572
253.143687 0.011470
253.216971 0.005468
254.034382 0.003724
255.017066 0.216675
255.038522 0.338300
255.158938 0.024291
255.231484 0.230607
255.324283 0.017740
256.019665 0.004121
256.233840 0.008423
257.189017 0.004288
259.442623 0.003931
261.027819 0.898421
262.031120 0.013014
262.533405 0.017651
262.845597 0.019771
263.043789 0.014003
263.058891 0.005271
263.148276 0.012409
263.236772 0.004488
263.516072 0.004935
265.022424 0.033481
265.163202 0.009663
267.017387 0.060968
269.032672 0.175242
271.080334 0.004868
271.154480 0.019491
272.064515 0.004759
272.424438 0.022302
273.027736 0.969064
273.221079 0.144945
274.030256 0.015851
275.043225 0.142124
275.199781 0.018062
275.285784 0.003895
275.970524 0.003966
276.359839 0.015602
277.038034 0.014806
277.215948 0.159711
277.258158 0.003868
279.021124 0.016879
279.038351 1.260105
279.595304 0.016197
280.041276 0.048830
281.490272 0.004813
283.174402 0.016580
283.262130 0.023906
285.027596 0.187558
287.042634 0.064673
287.747203 0.004409
289.217086 0.005532
289.252206 0.022280
289.850111 0.008908
290.313435 0.006901
291.038331 0.652491
291.231542 2.547385
291.248232 0.030559
292.235018 0.393776
293.053573 0.077320
297.027776 2.528247
297.300279 0.003842
297.991063 0.059778
298.030709 0.180865
299.064289 0.015878
301.069950 0.043502
301.216332 0.009739
301.632798 0.005084
303.037715 0.766822
303.084962 0.003732
304.042061 0.008823
304.094845 0.007340
304.117008 0.009108
305.053799 0.247087
307.825984 0.004014
308.311181 0.018748
308.334781 0.004033
309.097691 0.004189
309.278451 0.031025
309.536184 0.017414
311.294300 0.010149
312.042056 0.003736
315.038053 1.250208
315.179558 0.010401
316.040847 0.044750
317.045172 0.029380
317.065148 3.363170
317.247302 0.014974
318.068328 0.475385
319.070794 0.019315
319.128483 0.005070
319.227155 0.140910
321.048946 0.394380
321.067349 0.003754
321.242169 0.053384
322.914189 0.048651
323.257770 0.083876
327.038015 0.252538
331.080867 0.037018
333.048930 0.605062
333.165645 0.008919
334.051247 0.006071
334.159434 0.003465
335.258091 0.159817
335.596963 0.004729
336.260769 0.004303
337.050439 0.009333
337.382223 0.004085
339.230675 0.008565
340.062552 0.041392
340.320666 0.127218
342.477492 0.003929
344.081782 0.004613
344.934604 0.019406
345.048738 2.324296
346.052098 0.193631
347.056326 0.004011
347.094595 1.423171
348.082873 0.035477
348.097664 0.061163
349.067258 0.010155
350.289159 0.003908
351.059092 0.289691
351.648362 0.003947
353.091929 0.004918
354.013805 0.175815
354.505198 0.023972
354.991638 0.005362
355.014560 0.446569
355.042059 0.004676
355.658358 0.003515
356.015852 0.016355
356.079913 0.013193
356.680111 0.004943
357.077116 0.089538
359.033986 0.005833
359.205285 0.007988
359.306101 0.028232
360.839063 0.039003
361.173411 0.004072
363.063957 18.295323
363.510091 0.110758
364.012780 0.023348
364.067456 2.178150
365.067050 0.759196
365.128248 0.007499
365.341360 0.005895
367.053128 0.007665
367.354676 0.009293
368.038922 0.004616
370.524686 0.004155
372.515917 0.021006
373.022468 0.178739
374.940549 0.003893
377.046195 0.004955
377.315916 0.221488
378.320438 0.034774
379.031910 0.036256
380.236007 0.004201
381.069910 14.048917
382.030340 0.005661
382.073527 1.609068
383.073701 0.178226
383.560607 0.003781
387.069744 0.004229
389.680239 0.003950
391.005367 0.014557
391.033339 2.523345
392.009950 0.004257
392.036539 0.312347
393.038778 0.004889
395.085213 0.164418
395.326643 0.179081
396.330738 0.026607
397.340678 0.008916
403.231621 0.009081
405.047944 0.036262
405.584338 0.006235
405.837376 0.004784
408.740081 0.004897
409.043908 0.999308
410.003628 0.015992
410.047254 0.063923
413.338365 0.005533
415.033510 0.566619
416.036189 0.030861
417.067831 0.004596
417.856687 0.047593
419.852316 0.570575
420.854756 0.019432
423.060506 0.004573
423.321908 0.049396
430.000258 0.004359
431.854130 0.005150
433.009736 0.052072
433.043736 1.804679
434.003950 0.320023
434.046723 0.258642
435.008243 0.005389
435.868318 0.009701
437.862945 0.265613
437.981700 0.055720
439.200951 0.004498
439.784172 0.003860
439.823510 0.134055
441.071964 0.015486
441.823993 0.021892
445.043642 0.049563
445.294164 0.004535
445.774269 0.006043
447.060695 0.019969
447.346533 0.043312
450.869434 0.013268
451.032418 0.074868
451.057279 0.004598
453.857057 0.058225
455.990546 0.163039
456.998888 0.003758
457.043825 0.143827
458.003191 0.004956
459.058802 0.039431
462.208547 0.005596
462.854239 0.087252
464.244046 0.003663
464.816008 0.006048
464.849895 0.631311
465.850932 0.014705
467.873879 0.323881
468.875297 0.005016
469.043983 0.417283
469.592047 0.019021
470.006031 0.046719
470.046211 0.038549
471.518967 0.003873
473.890287 0.004071
475.055286 0.009706
478.865029 0.103411
479.867685 0.009330
480.865365 0.039565
481.045110 0.013627
482.860429 0.341001
485.301425 0.010690
487.054538 0.159311
488.059372 0.012889
491.873027 0.018494
493.996990 0.043340
495.025189 0.004725
495.265686 1.356211
495.833322 0.005303
496.267211 0.008693
496.835378 0.006460
496.874732 0.030358
497.832895 0.022281
498.769801 0.007496
499.053957 0.193451
500.060052 0.004439
501.087352 0.123293
502.092229 0.008101
505.888843 0.191979
506.893951 0.009516
511.243077 0.019076
517.065196 1.909208
518.068706 0.320114
519.037039 0.005480
519.072086 0.005204
520.157580 0.015803
520.844479 0.015426
521.021122 0.004817
521.106442 0.017222
521.159658 0.025179
521.868915 0.005236
522.020450 0.648376
522.156363 0.005051
523.021117 0.196061
523.862955 0.321572
524.865037 0.008295
525.153186 0.008165
531.953433 0.003660
532.029161 0.016174
534.040190 0.003639
535.076249 0.493491
536.035766 0.086489
536.078876 0.053875
537.882521 0.009041
538.166146 0.004837
539.167964 0.056330
539.878038 0.391817
540.162936 0.005159
540.881381 0.188465
541.158289 0.004805
541.874016 1.704872
542.161981 0.111188
542.876590 0.175297
543.164960 0.020380
544.696371 0.016411
546.082782 0.005415
549.314058 0.005667
551.328357 4.093797
552.328462 0.005293
554.723284 0.006816
555.890076 0.007558
557.837800 0.012943
557.888735 0.070417
558.429952 0.020311
558.888949 0.005157
559.884195 0.415368
560.175085 0.004452
560.886294 0.011391
577.086109 0.657189
578.089985 0.108229
578.663984 0.004453
579.085951 0.005090
597.327871 0.004378
601.034756 0.004675
601.085753 0.281688
602.087850 0.019751
602.165147 0.053870
605.372513 0.011576
607.390456 4.219155
608.389957 0.003799
616.635676 0.004058
618.034700 0.004277
619.096634 0.010404
625.203461 0.009730
631.559744 0.004465
631.983878 0.017707
646.256876 0.003993
648.458179 0.005366
651.713007 0.016882
652.453654 0.019369
661.107248 1.718287
661.445564 0.067984
662.111471 0.428253
662.456912 0.005152
663.135072 0.053440
663.452500 1.326496
677.274591 0.006496
677.372090 1.000366
677.477023 3.817203
677.581052 0.062478
678.372110 0.437299
678.479163 2.135930
678.581209 0.036263
679.125468 100.000000
679.259255 0.004655
679.382246 0.017027
679.458721 1.157533
679.559588 0.181030
680.128355 30.385918
680.460740 0.167709
680.565582 0.077539
681.127865 9.815101
682.880364 0.006549
683.963240 0.017670
686.034174 0.162258
686.952332 0.008913
687.039148 0.017044
697.127074 0.015751

